* ENCODING=ISO-8859-1
NAME          CPLEX
ROWS
 N  obj1    
 G  c1      
 G  c2      
 G  c3      
 G  c4      
 G  c5      
 G  c6      
 G  c7      
 G  c8      
 G  c9      
 G  c10     
 G  c11     
 G  c12     
 G  c13     
 G  c14     
 G  c15     
 G  c16     
 G  c17     
 G  c18     
 G  c19     
 G  c20     
 G  c21     
 G  c22     
 G  c23     
 G  c24     
 G  c25     
 G  c26     
 G  c27     
 G  c28     
 G  c29     
 G  c30     
 G  c31     
 G  c32     
 G  c33     
 G  c34     
 G  c35     
 G  c36     
 G  c37     
 G  c38     
 G  c39     
 G  c40     
COLUMNS
    MARK0000  'MARKER'                 'INTORG'
    x1        obj1                            1
    x1        c32                           275
    x1        c38                           977
    x2        obj1                            1
    x2        c2                            893
    x2        c22                           460
    x2        c23                           479
    x2        c28                           724
    x2        c40                           571
    x3        obj1                            1
    x3        c4                            269
    x3        c18                           333
    x3        c29                           948
    x3        c33                           128
    x3        c34                           766
    x4        obj1                            1
    x4        c17                           363
    x4        c34                           368
    x5        obj1                            1
    x5        c12                           745
    x5        c30                           596
    x5        c40                           510
    x6        obj1                            1
    x6        c1                            203
    x6        c12                           202
    x7        obj1                            1
    x7        c12                           543
    x7        c15                           693
    x8        obj1                            1
    x8        c2                            777
    x8        c22                           607
    x8        c32                           952
    x8        c37                           211
    x8        c38                           721
    x9        obj1                            1
    x9        c11                           286
    x9        c12                           765
    x9        c26                           587
    x9        c32                           600
    x9        c36                           725
    x10       obj1                            1
    x10       c14                           118
    x10       c26                           422
    x10       c29                           690
    x10       c38                           937
    x11       obj1                            1
    x11       c20                           972
    x11       c33                           970
    x12       obj1                            1
    x12       c12                           984
    x12       c25                           203
    x12       c26                           510
    x12       c28                           541
    x12       c29                           213
    x12       c32                           881
    x12       c34                           388
    x13       obj1                            1
    x13       c13                           411
    x13       c16                           326
    x13       c31                           703
    x13       c40                           323
    x14       obj1                            1
    x15       obj1                            1
    x15       c5                            273
    x15       c7                            155
    x15       c23                           871
    x16       obj1                            1
    x16       c3                            827
    x16       c16                           156
    x16       c18                           954
    x16       c19                           824
    x16       c25                           688
    x16       c32                           875
    x16       c37                           482
    x17       obj1                            1
    x17       c18                           365
    x17       c28                           842
    x17       c37                           376
    x17       c38                           789
    x18       obj1                            1
    x18       c8                            198
    x18       c12                           408
    x18       c16                           121
    x18       c18                           410
    x18       c34                          1000
    x19       obj1                            1
    x19       c35                           418
    x19       c36                           652
    x19       c37                           582
    x20       obj1                            1
    x20       c13                           219
    x20       c24                           870
    x21       obj1                            1
    x21       c22                           446
    x21       c32                           867
    x21       c34                           432
    x21       c38                           898
    x22       obj1                            1
    x22       c1                            485
    x22       c30                           120
    x22       c37                           742
    x23       obj1                            1
    x23       c2                            729
    x23       c3                            130
    x23       c7                            737
    x23       c30                           771
    x23       c39                           352
    x24       obj1                            1
    x24       c1                            172
    x24       c15                           658
    x24       c28                           741
    x24       c37                           700
    x25       obj1                            1
    x25       c4                            317
    x25       c25                           604
    x25       c29                           199
    x25       c34                           414
    x26       obj1                            1
    x26       c10                           906
    x26       c13                           135
    x26       c38                           602
    x27       obj1                            1
    x27       c5                            835
    x27       c25                           548
    x27       c28                           120
    x28       obj1                            1
    x28       c13                           494
    x28       c34                           406
    x28       c37                           596
    x29       obj1                            1
    x29       c13                           290
    x29       c23                           315
    x29       c25                           326
    x30       obj1                            1
    x30       c11                           319
    x31       obj1                            1
    x31       c12                           787
    x31       c16                           711
    x31       c18                           124
    x31       c40                           236
    x32       obj1                            1
    x32       c4                            787
    x32       c27                           568
    x33       obj1                            1
    x33       c4                            681
    x33       c8                            144
    x33       c9                            235
    x33       c14                           461
    x34       obj1                            1
    x34       c38                           940
    x35       obj1                            1
    x35       c2                            429
    x35       c3                            688
    x35       c6                            129
    x35       c14                           658
    x35       c17                           789
    x35       c32                           101
    x36       obj1                            1
    x36       c24                           638
    x36       c29                           433
    x36       c32                           604
    x37       obj1                            1
    x37       c4                            194
    x37       c10                           572
    x37       c21                           834
    x37       c22                           734
    x37       c25                           142
    x37       c33                           830
    x38       obj1                            1
    x38       c5                            559
    x38       c10                           478
    x38       c29                           319
    x38       c40                           376
    x39       obj1                            1
    x39       c4                            236
    x39       c10                           514
    x39       c31                           312
    x40       obj1                            1
    x40       c2                            380
    x40       c17                           444
    x40       c35                           868
    x40       c40                           596
    x41       obj1                            1
    x41       c14                           703
    x41       c24                           894
    x42       obj1                            1
    x42       c1                            955
    x42       c7                            574
    x42       c20                           847
    x42       c24                           115
    x43       obj1                            1
    x43       c18                           951
    x43       c27                           755
    x43       c39                           673
    x44       obj1                            1
    x44       c3                            458
    x44       c10                           431
    x44       c23                           720
    x44       c27                           956
    x44       c35                           883
    x45       obj1                            1
    x45       c2                            965
    x45       c20                           501
    x46       obj1                            1
    x46       c15                           661
    x47       obj1                            1
    x47       c5                            670
    x47       c6                            493
    x47       c9                            502
    x47       c26                           257
    x47       c27                           997
    x47       c29                           250
    x47       c36                           941
    x48       obj1                            1
    x48       c4                            595
    x48       c14                           303
    x48       c18                           345
    x48       c22                           362
    x48       c38                           797
    x49       obj1                            1
    x49       c11                           646
    x49       c25                           866
    x50       obj1                            1
    x50       c5                            737
    x50       c17                           184
    x50       c25                           196
    x50       c27                           367
    x51       obj1                            1
    x51       c1                            417
    x51       c13                           177
    x51       c14                           459
    x51       c15                           261
    x51       c20                           861
    x51       c23                           792
    x51       c24                           820
    x51       c28                           979
    x52       obj1                            1
    x52       c1                            508
    x52       c2                            369
    x52       c31                           300
    x52       c32                           774
    x52       c34                           983
    x52       c35                           340
    x52       c36                           145
    x52       c39                           799
    x52       c40                           762
    x53       obj1                            1
    x53       c13                           249
    x53       c14                           690
    x54       obj1                            1
    x54       c7                            373
    x54       c9                            946
    x55       obj1                            1
    x55       c6                            257
    x55       c14                           607
    x55       c16                           390
    x55       c30                           495
    x56       obj1                            1
    x56       c4                            692
    x56       c11                           330
    x56       c18                           842
    x56       c22                           606
    x56       c24                           754
    x56       c28                           156
    x57       obj1                            1
    x57       c9                            559
    x57       c23                           292
    x57       c34                           801
    x57       c36                           926
    x58       obj1                            1
    x58       c2                            400
    x58       c10                           602
    x58       c11                           850
    x59       obj1                            1
    x59       c4                            732
    x59       c7                            572
    x59       c12                           304
    x59       c15                           264
    x59       c24                           499
    x59       c31                           247
    x60       obj1                            1
    x60       c4                            239
    x60       c25                           754
    x60       c29                           190
    x60       c32                           188
    x61       obj1                            1
    x61       c1                            489
    x61       c21                           354
    x61       c22                           922
    x61       c26                           576
    x61       c40                           670
    x62       obj1                            1
    x62       c5                            266
    x62       c13                           572
    x62       c34                           519
    x62       c35                           914
    x63       obj1                            1
    x63       c6                            847
    x63       c8                            292
    x63       c12                           242
    x63       c16                           122
    x63       c20                           328
    x63       c27                           255
    x64       obj1                            1
    x64       c17                           188
    x64       c24                           725
    x64       c25                           859
    x64       c31                           254
    x64       c38                           919
    x65       obj1                            1
    x65       c25                           852
    x65       c29                           180
    x65       c38                           703
    x66       obj1                            1
    x66       c16                           439
    x66       c18                           521
    x66       c28                           523
    x66       c33                           764
    x66       c35                           301
    x67       obj1                            1
    x67       c4                            283
    x67       c11                           380
    x67       c12                           209
    x67       c13                           930
    x67       c16                           584
    x67       c19                           167
    x67       c37                           528
    x68       obj1                            1
    x68       c15                           738
    x68       c26                           176
    x68       c32                           745
    x68       c37                           521
    x68       c38                           979
    x69       obj1                            1
    x69       c21                           414
    x70       obj1                            1
    x70       c25                           808
    x70       c39                           738
    x70       c40                           364
    x71       obj1                            1
    x71       c6                            459
    x71       c9                            737
    x71       c10                           102
    x71       c17                           819
    x71       c18                           287
    x71       c33                           505
    x72       obj1                            1
    x72       c12                           279
    x72       c35                           681
    x72       c37                           464
    x73       obj1                            1
    x73       c13                           191
    x73       c19                           877
    x74       obj1                            1
    x74       c18                           367
    x74       c19                           172
    x74       c24                           780
    x74       c34                           109
    x75       obj1                            1
    x75       c13                           323
    x76       obj1                            1
    x76       c8                            824
    x76       c23                           735
    x76       c24                           260
    x76       c29                           792
    x76       c35                           828
    x76       c38                           812
    x76       c40                           324
    x77       obj1                            1
    x77       c8                            235
    x77       c12                           675
    x77       c15                           602
    x77       c29                           645
    x78       obj1                            1
    x78       c4                            768
    x78       c8                            826
    x78       c21                           507
    x78       c34                           281
    x79       obj1                            1
    x79       c18                           842
    x79       c27                           637
    x79       c29                           776
    x79       c37                           843
    x80       obj1                            1
    x80       c1                            482
    x80       c2                            400
    x80       c5                            560
    x80       c19                           811
    x80       c33                           197
    MARK0001  'MARKER'                 'INTEND'
RHS
    rhs       c1                           1856
    rhs       c2                           2671
    rhs       c3                           1052
    rhs       c4                           2897
    rhs       c5                           1950
    rhs       c6                           1093
    rhs       c7                           1206
    rhs       c8                           1260
    rhs       c9                           1490
    rhs       c10                          1803
    rhs       c11                          1406
    rhs       c12                          3072
    rhs       c13                          1996
    rhs       c14                          2000
    rhs       c15                          1939
    rhs       c16                          1425
    rhs       c17                          1394
    rhs       c18                          3171
    rhs       c19                          1426
    rhs       c20                          1755
    rhs       c21                          1055
    rhs       c22                          2069
    rhs       c23                          2102
    rhs       c24                          3178
    rhs       c25                          3423
    rhs       c26                          1264
    rhs       c27                          2268
    rhs       c28                          2313
    rhs       c29                          2818
    rhs       c30                           991
    rhs       c31                           908
    rhs       c32                          3431
    rhs       c33                          1697
    rhs       c34                          3234
    rhs       c35                          2617
    rhs       c36                          1695
    rhs       c37                          3023
    rhs       c38                          5037
    rhs       c39                          1281
    rhs       c40                          2366
BOUNDS
 LI bnd       x1        0
 LI bnd       x2        0
 LI bnd       x3        0
 LI bnd       x4        0
 LI bnd       x5        0
 LI bnd       x6        0
 LI bnd       x7        0
 LI bnd       x8        0
 LI bnd       x9        0
 LI bnd       x10       0
 LI bnd       x11       0
 LI bnd       x12       0
 LI bnd       x13       0
 LI bnd       x14       0
 LI bnd       x15       0
 LI bnd       x16       0
 LI bnd       x17       0
 LI bnd       x18       0
 LI bnd       x19       0
 LI bnd       x20       0
 LI bnd       x21       0
 LI bnd       x22       0
 LI bnd       x23       0
 LI bnd       x24       0
 LI bnd       x25       0
 LI bnd       x26       0
 LI bnd       x27       0
 LI bnd       x28       0
 LI bnd       x29       0
 LI bnd       x30       0
 LI bnd       x31       0
 LI bnd       x32       0
 LI bnd       x33       0
 LI bnd       x34       0
 LI bnd       x35       0
 LI bnd       x36       0
 LI bnd       x37       0
 LI bnd       x38       0
 LI bnd       x39       0
 LI bnd       x40       0
 LI bnd       x41       0
 LI bnd       x42       0
 LI bnd       x43       0
 LI bnd       x44       0
 LI bnd       x45       0
 LI bnd       x46       0
 LI bnd       x47       0
 LI bnd       x48       0
 LI bnd       x49       0
 LI bnd       x50       0
 LI bnd       x51       0
 LI bnd       x52       0
 LI bnd       x53       0
 LI bnd       x54       0
 LI bnd       x55       0
 LI bnd       x56       0
 LI bnd       x57       0
 LI bnd       x58       0
 LI bnd       x59       0
 LI bnd       x60       0
 LI bnd       x61       0
 LI bnd       x62       0
 LI bnd       x63       0
 LI bnd       x64       0
 LI bnd       x65       0
 LI bnd       x66       0
 LI bnd       x67       0
 LI bnd       x68       0
 LI bnd       x69       0
 LI bnd       x70       0
 LI bnd       x71       0
 LI bnd       x72       0
 LI bnd       x73       0
 LI bnd       x74       0
 LI bnd       x75       0
 LI bnd       x76       0
 LI bnd       x77       0
 LI bnd       x78       0
 LI bnd       x79       0
 LI bnd       x80       0
ENDATA
